exploration_planner/utils/lkh_tsp_solver/resource/single_no_alc.tsp
NAME : single
TYPE : ATSP
DIMENSION : 9
EDGE_WEIGHT_TYPE : EXPLICIT
EDGE_WEIGHT_FORMAT : FULL_MATRIX
EDGE_WEIGHT_SECTION
0 620 646 673 174 103 194 238 
0 0 187 152 288 273 320 274 
0 187 0 260 359 313 398 320 
0 152 260 0 338 322 369 323 
0 288 359 338 0 127 105 150 
0 273 313 322 127 0 233 278 
0 320 398 369 105 233 0 94 
0 274 320 323 150 278 94 0 
EOF